num_offers = 20;
num_halls = 10;
start=[4,13,33,48,26,11,13,43,7,45,19,25,6,16,19,1,23,21,43,38];
end=[56,95,74,83,68,36,58,73,8,100,27,85,95,89,24,5,84,76,77,99];
price=[4066,955,2293,1968,3711,798,1552,3029,53,5302,236,2639,5931,3939,182,251,1166,3351,1467,5818];
requirement=[275,415,633,434,550,747,883,280,586,542,623,607,795,683,949,851,819,690,862,311];
capacity=[870,505,939,878,902,646,679,339,844,834];
